# Solution for model recoveryProblem_model
# Objective value = 107
_r[291450206011012,Do_nothing,Do_nothing] 0
_r[291450206011012,Do_nothing,Recover] 1
_r[291450206011012,R1,Do_nothing] 0
_r[291450206011012,R1,Recover] 0
_r[291450206011012,R2,Do_nothing] 0
_r[291450206011012,R2,Recover] 0
_r[291450206011012,R3,Do_nothing] 0
_r[291450206011012,R3,Recover] 0
_r[290970112004069,Do_nothing,Do_nothing] 1
_r[290970112004069,Do_nothing,Recover] 0
_r[290970112004069,R1,Do_nothing] 0
_r[290970112004069,R1,Recover] 0
_r[290970112004069,R2,Do_nothing] 0
_r[290970112004069,R2,Recover] 0
_r[290970112004069,R3,Do_nothing] 0
_r[290970112004069,R3,Recover] 0
_r[290970109002051,Do_nothing,Do_nothing] 1
_r[290970109002051,Do_nothing,Recover] 0
_r[290970109002051,R1,Do_nothing] 0
_r[290970109002051,R1,Recover] 0
_r[290970109002051,R2,Do_nothing] 0
_r[290970109002051,R2,Recover] 0
_r[290970109002051,R3,Do_nothing] 0
_r[290970109002051,R3,Recover] 0
_r[290970110005024,Do_nothing,Do_nothing] 0
_r[290970110005024,Do_nothing,Recover] 1
_r[290970110005024,R1,Do_nothing] 0
_r[290970110005024,R1,Recover] 0
_r[290970110005024,R2,Do_nothing] 0
_r[290970110005024,R2,Recover] 0
_r[290970110005024,R3,Do_nothing] 0
_r[290970110005024,R3,Recover] 0
_r[290970108003014,Do_nothing,Do_nothing] 0
_r[290970108003014,Do_nothing,Recover] 1
_r[290970108003014,R1,Do_nothing] 0
_r[290970108003014,R1,Recover] 0
_r[290970108003014,R2,Do_nothing] 0
_r[290970108003014,R2,Recover] 0
_r[290970108003014,R3,Do_nothing] 0
_r[290970108003014,R3,Recover] 0
_r[290970101001022,Do_nothing,Do_nothing] 1
_r[290970101001022,Do_nothing,Recover] 0
_r[290970101001022,R1,Do_nothing] 0
_r[290970101001022,R1,Recover] 0
_r[290970101001022,R2,Do_nothing] 0
_r[290970101001022,R2,Recover] 0
_r[290970101001022,R3,Do_nothing] 0
_r[290970101001022,R3,Recover] 0
_r[290970106004001,Do_nothing,Do_nothing] 1
_r[290970106004001,Do_nothing,Recover] 0
_r[290970106004001,R1,Do_nothing] 0
_r[290970106004001,R1,Recover] 0
_r[290970106004001,R2,Do_nothing] 0
_r[290970106004001,R2,Recover] 0
_r[290970106004001,R3,Do_nothing] 0
_r[290970106004001,R3,Recover] 0
_r[290970106003025,Do_nothing,Do_nothing] 1
_r[290970106003025,Do_nothing,Recover] 0
_r[290970106003025,R1,Do_nothing] 0
_r[290970106003025,R1,Recover] 0
_r[290970106003025,R2,Do_nothing] 0
_r[290970106003025,R2,Recover] 0
_r[290970106003025,R3,Do_nothing] 0
_r[290970106003025,R3,Recover] 0
_r[290970102001050,Do_nothing,Do_nothing] 1
_r[290970102001050,Do_nothing,Recover] 0
_r[290970102001050,R1,Do_nothing] 0
_r[290970102001050,R1,Recover] 0
_r[290970102001050,R2,Do_nothing] 0
_r[290970102001050,R2,Recover] 0
_r[290970102001050,R3,Do_nothing] 0
_r[290970102001050,R3,Recover] 0
_r[290970104003071,Do_nothing,Do_nothing] 1
_r[290970104003071,Do_nothing,Recover] 0
_r[290970104003071,R1,Do_nothing] 0
_r[290970104003071,R1,Recover] 0
_r[290970104003071,R2,Do_nothing] 0
_r[290970104003071,R2,Recover] 0
_r[290970104003071,R3,Do_nothing] 0
_r[290970104003071,R3,Recover] 0
